*SENSE:Minimize
NAME          MODEL
ROWS
 N  OBJ
 G  C0000000
 G  C0000001
 G  C0000002
 G  C0000003
 G  C0000004
 G  C0000005
 G  C0000006
 G  C0000007
 G  C0000008
COLUMNS
    MARK      'MARKER'                 'INTORG'
    X0000000  C0000008   1.00000e+00
    X0000000  C0000004  -1.00000e+00
    X0000000  OBJ        1.20000e-01
    MARK      'MARKER'                 'INTEND'
    MARK      'MARKER'                 'INTORG'
    X0000001  C0000004  -1.00000e+00
    X0000001  C0000007   1.00000e+00
    X0000001  OBJ        6.00000e-01
    MARK      'MARKER'                 'INTEND'
    MARK      'MARKER'                 'INTORG'
    X0000002  C0000002  -1.00000e+00
    X0000002  C0000005   1.00000e+00
    X0000002  OBJ        3.50000e-01
    MARK      'MARKER'                 'INTEND'
    MARK      'MARKER'                 'INTORG'
    X0000003  C0000002  -1.00000e+00
    X0000003  C0000006   1.00000e+00
    X0000003  OBJ        5.50000e-01
    MARK      'MARKER'                 'INTEND'
    MARK      'MARKER'                 'INTORG'
    X0000004  C0000003  -1.00000e+00
    X0000004  C0000006   1.00000e+00
    X0000004  OBJ        3.75000e-01
    MARK      'MARKER'                 'INTEND'
    MARK      'MARKER'                 'INTORG'
    X0000005  C0000003  -1.00000e+00
    X0000005  C0000007   1.00000e+00
    X0000005  OBJ        6.50000e-01
    MARK      'MARKER'                 'INTEND'
    MARK      'MARKER'                 'INTORG'
    X0000006  C0000001  -1.00000e+00
    X0000006  C0000004   1.00000e+00
    X0000006  OBJ        4.00000e-01
    MARK      'MARKER'                 'INTEND'
    MARK      'MARKER'                 'INTORG'
    X0000007  C0000001  -1.00000e+00
    X0000007  C0000002   1.00000e+00
    X0000007  OBJ        3.50000e-01
    MARK      'MARKER'                 'INTEND'
    MARK      'MARKER'                 'INTORG'
    X0000008  C0000001  -1.00000e+00
    X0000008  C0000008   1.00000e+00
    X0000008  OBJ        4.50000e-01
    MARK      'MARKER'                 'INTEND'
    MARK      'MARKER'                 'INTORG'
    X0000009  C0000001  -1.00000e+00
    X0000009  C0000003   1.00000e+00
    X0000009  OBJ        4.50000e-01
    MARK      'MARKER'                 'INTEND'
    MARK      'MARKER'                 'INTORG'
    X0000010  C0000000  -1.00000e+00
    X0000010  C0000005   1.00000e+00
    X0000010  OBJ        5.00000e-01
    MARK      'MARKER'                 'INTEND'
    MARK      'MARKER'                 'INTORG'
    X0000011  C0000000  -1.00000e+00
    X0000011  C0000004   1.00000e+00
    X0000011  OBJ        3.75000e-01
    MARK      'MARKER'                 'INTEND'
    MARK      'MARKER'                 'INTORG'
    X0000012  C0000000  -1.00000e+00
    X0000012  C0000002   1.00000e+00
    X0000012  OBJ        3.50000e-01
    MARK      'MARKER'                 'INTEND'
    MARK      'MARKER'                 'INTORG'
    X0000013  C0000000  -1.00000e+00
    X0000013  C0000003   1.00000e+00
    X0000013  OBJ        4.50000e-01
    MARK      'MARKER'                 'INTEND'
RHS
    RHS       C0000000  -1.00000e+04
    RHS       C0000001  -1.50000e+04
    RHS       C0000002   0.00000e+00
    RHS       C0000003   0.00000e+00
    RHS       C0000004   0.00000e+00
    RHS       C0000005   3.00000e+03
    RHS       C0000006   7.00000e+03
    RHS       C0000007   4.00000e+03
    RHS       C0000008   6.00000e+03
BOUNDS
 UP BND       X0000000   4.00000e+03
 UP BND       X0000001   2.00000e+03
 LO BND       X0000002   1.00000e+03
 UP BND       X0000002   5.00000e+03
 UP BND       X0000003   6.00000e+03
 UP BND       X0000004   4.00000e+03
 UP BND       X0000005   4.00000e+03
 UP BND       X0000006   4.00000e+03
 UP BND       X0000007   2.00000e+03
 UP BND       X0000008   2.00000e+03
 LO BND       X0000009   2.00000e+03
 UP BND       X0000009   3.00000e+03
 UP BND       X0000010   1.00000e+03
 UP BND       X0000011   5.00000e+03
 UP BND       X0000012   3.00000e+03
 LO BND       X0000013   1.00000e+03
 UP BND       X0000013   5.00000e+03
ENDATA
